NAME 
ROWS
 N  OBJ
 L  R0      
 L  R1      
 L  R2      
 E  R3      
 E  R4      
 E  R5      
 E  R6      
 E  R7      
 E  R8      
 E  R9      
 E  R10     
 E  R11     
 E  R12     
 E  R13     
 E  R14     
 E  R15     
 E  R16     
 E  R17     
 E  R18     
 E  R19     
 E  R20     
 E  R21     
 E  R22     
 E  R23     
 E  R24     
 E  R25     
 E  R26     
 E  R27     
COLUMNS
    MARKER    'MARKER'                 'INTORG'
    I0(12)    OBJ       142
    I0(12)    R0        1
    I0(12)    R1        20
    I0(12)    R2        -72
    I0(12)    R3        13
    I0(12)    R4        9
    I0(12)    R5        6
    I0(12)    R6        19
    I0(12)    R8        3
    I0(12)    R9        19
    I0(12)    R11       2
    I0(12)    R12       3
    I0(12)    R27       1
    I1(11)    OBJ       -101
    I1(11)    R0        143
    I1(11)    R1        162
    I1(11)    R2        -119
    I1(11)    R3        5
    I1(11)    R4        16
    I1(11)    R5        1
    I1(11)    R6        14
    I1(11)    R7        -1
    I1(11)    R11       2
    I1(11)    R12       17
    I1(11)    R27       1
    I2(12)    OBJ       -133
    I2(12)    R0        177
    I2(12)    R1        165
    I2(12)    R2        -116
    I2(12)    R4        16
    I2(12)    R5        3
    I2(12)    R6        17
    I2(12)    R7        12
    I2(12)    R8        17
    I2(12)    R10       13
    I2(12)    R11       16
    I2(12)    R12       5
    I2(12)    R27       1
    I3(13)    OBJ       137
    I3(13)    R0        164
    I3(13)    R1        31
    I3(13)    R2        -74
    I3(13)    R3        17
    I3(13)    R5        19
    I3(13)    R6        1
    I3(13)    R7        9
    I3(13)    R8        15
    I3(13)    R9        14
    I3(13)    R10       12
    I3(13)    R11       13
    I3(13)    R12       6
    I3(13)    R27       1
    I4(12)    OBJ       -110
    I4(12)    R0        -122
    I4(12)    R1        -21
    I4(12)    R2        17
    I4(12)    R3        15
    I4(12)    R4        12
    I4(12)    R5        17
    I4(12)    R6        5
    I4(12)    R7        19
    I4(12)    R8        6
    I4(12)    R11       19
    I4(12)    R12       4
    I4(12)    R27       1
    I5(12)    OBJ       -150
    I5(12)    R0        142
    I5(12)    R1        -133
    I5(12)    R2        109
    I5(12)    R3        1
    I5(12)    R6        1
    I5(12)    R7        3
    I5(12)    R8        8
    I5(12)    R9        5
    I5(12)    R10       12
    I5(12)    R11       5
    I5(12)    R12       8
    I5(12)    R27       1
    I6(11)    OBJ       -160
    I6(11)    R0        -153
    I6(11)    R1        35
    I6(11)    R2        189
    I6(11)    R4        1
    I6(11)    R5        3
    I6(11)    R6        13
    I6(11)    R9        7
    I6(11)    R10       12
    I6(11)    R11       12
    I6(11)    R12       2
    I6(11)    R27       1
    I7(12)    OBJ       -36
    I7(12)    R0        -79
    I7(12)    R1        -88
    I7(12)    R2        -128
    I7(12)    R3        17
    I7(12)    R4        15
    I7(12)    R6        10
    I7(12)    R7        15
    I7(12)    R9        19
    I7(12)    R10       11
    I7(12)    R11       17
    I7(12)    R12       4
    I7(12)    R27       1
    I8(11)    OBJ       154
    I8(11)    R0        -91
    I8(11)    R1        -193
    I8(11)    R2        193
    I8(11)    R3        9
    I8(11)    R4        12
    I8(11)    R7        10
    I8(11)    R8        12
    I8(11)    R9        8
    I8(11)    R11       17
    I8(11)    R12       4
    I8(11)    R27       1
    I9(13)    OBJ       134
    I9(13)    R0        -71
    I9(13)    R1        192
    I9(13)    R2        119
    I9(13)    R3        13
    I9(13)    R5        3
    I9(13)    R6        5
    I9(13)    R7        -1
    I9(13)    R8        3
    I9(13)    R9        16
    I9(13)    R10       5
    I9(13)    R11       9
    I9(13)    R12       12
    I9(13)    R27       1
    MARKER    'MARKER'                 'INTEND'
    C10(22)   OBJ       -7
    C10(22)   R0        9
    C10(22)   R1        -7
    C10(22)   R2        2
    C10(22)   R3        16
    C10(22)   R5        17
    C10(22)   R6        19
    C10(22)   R7        2
    C10(22)   R8        4
    C10(22)   R9        10
    C10(22)   R11       12
    C10(22)   R12       16
    C10(22)   R13       7
    C10(22)   R14       8
    C10(22)   R15       10
    C10(22)   R16       1
    C10(22)   R18       3
    C10(22)   R19       3
    C10(22)   R20       15
    C10(22)   R22       4
    C10(22)   R23       3
    C10(22)   R25       4
    C10(22)   R26       9
    C11(23)   OBJ       -3
    C11(23)   R0        -1
    C11(23)   R1        6
    C11(23)   R2        -8
    C11(23)   R5        15
    C11(23)   R6        7
    C11(23)   R7        18
    C11(23)   R8        3
    C11(23)   R9        1
    C11(23)   R10       13
    C11(23)   R11       10
    C11(23)   R12       1
    C11(23)   R13       18
    C11(23)   R14       19
    C11(23)   R15       17
    C11(23)   R16       19
    C11(23)   R17       12
    C11(23)   R18       15
    C11(23)   R19       1
    C11(23)   R21       5
    C11(23)   R22       16
    C11(23)   R23       18
    C11(23)   R25       18
    C11(23)   R26       15
    C12(22)   OBJ       6
    C12(22)   R0        4
    C12(22)   R1        5
    C12(22)   R2        8
    C12(22)   R4        7
    C12(22)   R5        18
    C12(22)   R6        10
    C12(22)   R7        13
    C12(22)   R8        10
    C12(22)   R9        2
    C12(22)   R11       14
    C12(22)   R12       7
    C12(22)   R13       10
    C12(22)   R14       -1
    C12(22)   R16       13
    C12(22)   R17       7
    C12(22)   R19       -1
    C12(22)   R20       12
    C12(22)   R21       1
    C12(22)   R22       6
    C12(22)   R23       9
    C12(22)   R24       16
    C12(22)   R26       9
    C13(24)   OBJ       -2
    C13(24)   R0        5
    C13(24)   R1        -10
    C13(24)   R2        -10
    C13(24)   R3        3
    C13(24)   R4        -1
    C13(24)   R5        2
    C13(24)   R6        12
    C13(24)   R8        8
    C13(24)   R9        10
    C13(24)   R10       4
    C13(24)   R11       1
    C13(24)   R12       16
    C13(24)   R13       2
    C13(24)   R14       4
    C13(24)   R15       7
    C13(24)   R16       2
    C13(24)   R18       7
    C13(24)   R19       9
    C13(24)   R20       14
    C13(24)   R22       17
    C13(24)   R23       11
    C13(24)   R24       15
    C13(24)   R25       7
    C13(24)   R26       9
    C14(25)   OBJ       -4
    C14(25)   R0        -7
    C14(25)   R1        5
    C14(25)   R2        1
    C14(25)   R3        7
    C14(25)   R4        16
    C14(25)   R5        7
    C14(25)   R6        5
    C14(25)   R7        15
    C14(25)   R8        5
    C14(25)   R9        17
    C14(25)   R10       19
    C14(25)   R11       18
    C14(25)   R12       15
    C14(25)   R13       3
    C14(25)   R14       5
    C14(25)   R15       13
    C14(25)   R16       19
    C14(25)   R17       11
    C14(25)   R19       10
    C14(25)   R20       11
    C14(25)   R21       15
    C14(25)   R22       8
    C14(25)   R23       19
    C14(25)   R25       12
    C14(25)   R26       16
    C15(21)   OBJ       2
    C15(21)   R0        -8
    C15(21)   R2        -3
    C15(21)   R4        13
    C15(21)   R7        7
    C15(21)   R8        -1
    C15(21)   R9        11
    C15(21)   R10       12
    C15(21)   R11       17
    C15(21)   R12       7
    C15(21)   R13       16
    C15(21)   R14       8
    C15(21)   R15       15
    C15(21)   R17       8
    C15(21)   R18       -1
    C15(21)   R19       13
    C15(21)   R20       6
    C15(21)   R21       13
    C15(21)   R22       11
    C15(21)   R24       16
    C15(21)   R25       -1
    C15(21)   R26       17
    C16(21)   OBJ       -4
    C16(21)   R0        8
    C16(21)   R1        -3
    C16(21)   R2        -6
    C16(21)   R4        5
    C16(21)   R5        15
    C16(21)   R6        18
    C16(21)   R7        8
    C16(21)   R8        4
    C16(21)   R10       8
    C16(21)   R12       11
    C16(21)   R13       4
    C16(21)   R14       17
    C16(21)   R16       18
    C16(21)   R17       1
    C16(21)   R18       2
    C16(21)   R19       2
    C16(21)   R20       5
    C16(21)   R22       9
    C16(21)   R24       5
    C16(21)   R25       2
    C16(21)   R26       11
    C17(23)   OBJ       -9
    C17(23)   R1        7
    C17(23)   R2        9
    C17(23)   R3        4
    C17(23)   R4        3
    C17(23)   R5        13
    C17(23)   R6        2
    C17(23)   R7        13
    C17(23)   R8        1
    C17(23)   R9        16
    C17(23)   R10       19
    C17(23)   R11       7
    C17(23)   R12       14
    C17(23)   R13       1
    C17(23)   R14       12
    C17(23)   R15       18
    C17(23)   R17       12
    C17(23)   R18       19
    C17(23)   R19       16
    C17(23)   R21       5
    C17(23)   R22       5
    C17(23)   R24       6
    C17(23)   R25       6
    C17(23)   R26       7
    C18(22)   OBJ       2
    C18(22)   R0        -1
    C18(22)   R1        -6
    C18(22)   R2        -3
    C18(22)   R3        4
    C18(22)   R4        2
    C18(22)   R5        1
    C18(22)   R6        18
    C18(22)   R7        5
    C18(22)   R8        16
    C18(22)   R9        17
    C18(22)   R10       18
    C18(22)   R12       10
    C18(22)   R13       19
    C18(22)   R14       10
    C18(22)   R17       2
    C18(22)   R18       16
    C18(22)   R19       12
    C18(22)   R20       2
    C18(22)   R21       13
    C18(22)   R23       2
    C18(22)   R25       5
    C18(22)   R26       14
    C19(16)   OBJ       2
    C19(16)   R0        1
    C19(16)   R2        2
    C19(16)   R3        11
    C19(16)   R4        14
    C19(16)   R6        2
    C19(16)   R8        -1
    C19(16)   R9        -1
    C19(16)   R12       1
    C19(16)   R13       2
    C19(16)   R14       7
    C19(16)   R15       -1
    C19(16)   R17       6
    C19(16)   R19       12
    C19(16)   R20       7
    C19(16)   R22       18
    C19(16)   R25       9
    C20(19)   R0        -4
    C20(19)   R1        2
    C20(19)   R2        -5
    C20(19)   R3        2
    C20(19)   R4        1
    C20(19)   R5        18
    C20(19)   R9        9
    C20(19)   R11       7
    C20(19)   R12       7
    C20(19)   R14       12
    C20(19)   R15       7
    C20(19)   R17       6
    C20(19)   R18       6
    C20(19)   R19       4
    C20(19)   R20       -1
    C20(19)   R21       10
    C20(19)   R22       11
    C20(19)   R23       11
    C20(19)   R25       6
    C21(23)   OBJ       2
    C21(23)   R0        -3
    C21(23)   R1        -3
    C21(23)   R2        -2
    C21(23)   R3        4
    C21(23)   R5        1
    C21(23)   R6        4
    C21(23)   R7        10
    C21(23)   R8        2
    C21(23)   R9        13
    C21(23)   R10       9
    C21(23)   R11       19
    C21(23)   R12       7
    C21(23)   R13       1
    C21(23)   R14       19
    C21(23)   R15       11
    C21(23)   R16       11
    C21(23)   R17       1
    C21(23)   R18       -1
    C21(23)   R20       15
    C21(23)   R22       19
    C21(23)   R24       2
    C21(23)   R25       1
    C21(23)   R26       18
    C22(21)   OBJ       8
    C22(21)   R0        6
    C22(21)   R1        -7
    C22(21)   R2        2
    C22(21)   R3        11
    C22(21)   R4        9
    C22(21)   R5        4
    C22(21)   R7        5
    C22(21)   R8        15
    C22(21)   R9        12
    C22(21)   R10       11
    C22(21)   R11       9
    C22(21)   R12       6
    C22(21)   R13       12
    C22(21)   R16       14
    C22(21)   R18       19
    C22(21)   R20       17
    C22(21)   R21       3
    C22(21)   R22       7
    C22(21)   R24       9
    C22(21)   R25       6
    C22(21)   R26       7
    C23(22)   OBJ       -10
    C23(22)   R0        4
    C23(22)   R2        9
    C23(22)   R3        -1
    C23(22)   R4        10
    C23(22)   R5        9
    C23(22)   R6        12
    C23(22)   R7        5
    C23(22)   R8        1
    C23(22)   R9        7
    C23(22)   R10       17
    C23(22)   R12       5
    C23(22)   R13       -1
    C23(22)   R14       18
    C23(22)   R16       19
    C23(22)   R17       12
    C23(22)   R18       15
    C23(22)   R20       3
    C23(22)   R22       4
    C23(22)   R23       12
    C23(22)   R24       7
    C23(22)   R25       15
    C23(22)   R26       14
    C24(23)   OBJ       -5
    C24(23)   R0        -3
    C24(23)   R1        -4
    C24(23)   R2        -4
    C24(23)   R3        6
    C24(23)   R4        15
    C24(23)   R5        3
    C24(23)   R6        8
    C24(23)   R8        8
    C24(23)   R9        14
    C24(23)   R10       11
    C24(23)   R13       16
    C24(23)   R14       12
    C24(23)   R15       18
    C24(23)   R17       12
    C24(23)   R18       15
    C24(23)   R19       4
    C24(23)   R20       3
    C24(23)   R21       17
    C24(23)   R22       18
    C24(23)   R23       12
    C24(23)   R24       -1
    C24(23)   R25       5
    C24(23)   R26       12
    C25(1)    R3        1
    C26(1)    R4        1
    C27(1)    R5        1
    C28(1)    R6        1
    C29(1)    R7        1
    C30(1)    R8        1
    C31(1)    R9        1
    C32(1)    R10       1
    C33(1)    R11       1
    C34(1)    R12       1
    C35(1)    R13       1
    C36(1)    R14       1
    C37(1)    R15       1
    C38(1)    R16       1
    C39(1)    R17       1
    C40(1)    R18       1
    C41(1)    R19       1
    C42(1)    R20       1
    C43(1)    R21       1
    C44(1)    R22       1
    C45(1)    R23       1
    C46(1)    R24       1
    C47(1)    R25       1
    C48(1)    R26       1
    C49(1)    R27       1
RHS
    RHS1      R0        -1.3998634651600753e+02
    RHS1      R1        -7.4780367231638408e+01
    RHS1      R2        5.0326035781544255e+02
    RHS1      R3        75
    RHS1      R4        68
    RHS1      R5        62
    RHS1      R6        81
    RHS1      R7        86
    RHS1      R8        51
    RHS1      R9        69
    RHS1      R10       59
    RHS1      R11       89
    RHS1      R12       92
    RHS1      R13       63
    RHS1      R14       76
    RHS1      R15       70
    RHS1      R16       63
    RHS1      R17       62
    RHS1      R18       60
    RHS1      R19       76
    RHS1      R20       63
    RHS1      R21       86
    RHS1      R22       51
    RHS1      R23       54
    RHS1      R24       70
    RHS1      R25       50
    RHS1      R26       55
    RHS1      R27       3
BOUNDS
 UP BND1      I0(12)    2
 UP BND1      I1(11)    2
 UP BND1      I2(12)    2
 UP BND1      I3(13)    2
 UP BND1      I4(12)    2
 UP BND1      I5(12)    2
 UP BND1      I6(11)    2
 UP BND1      I7(12)    2
 UP BND1      I8(11)    2
 UP BND1      I9(13)    2
ENDATA
